NAME: GRASP_33_6
TYPE: TSP
COMMENT: line_33_6
DIMENSION: 33
EDGE_WEIGHT_TYPE: EUC_2D
NODE_COORD_SECTION
1 39 1261
2 4994 1195
3 946 1772
4 3001 3860
5 1803 3811
6 4310 443
7 4291 1522
8 327 2379
9 813 645
10 3309 2519
11 1996 3469
12 4283 1142
13 1939 52
14 2369 1821
15 2089 1947
16 367 4006
17 3542 872
18 2904 4818
19 2574 2597
20 623 2129
21 2151 3914
22 4014 3848
23 980 4297
24 245 4323
25 4783 4115
26 4544 788
27 2786 4599
28 2116 1155
29 4465 2073
30 3999 1806
31 2238 2455
32 280 2105
33 4100 3815
